% seed = 1751315

mint = 48;
% maxt = 102;

nActs = 22;
dur = [0,6,8,2,9,3,7,5,1,6,4,4,9,7,9,2,4,1,8,5,2,0];

nSkills = 4;
sreq = [| 0,0,0,0,
	| 3,3,0,3,
	| 0,0,3,3,
	| 2,2,0,3,
	| 3,1,2,3,
	| 2,3,1,0,
	| 0,0,2,3,
	| 0,2,2,0,
	| 3,2,0,3,
	| 0,3,2,1,
	| 2,1,2,2,
	| 3,1,2,2,
	| 3,0,2,0,
	| 0,2,2,2,
	| 3,3,0,0,
	| 1,1,2,1,
	| 2,1,1,0,
	| 0,3,0,1,
	| 1,0,3,0,
	| 1,2,1,1,
	| 2,2,2,0,
	| 0,0,0,0, |];

nResources = 25;
mastery = [| false,true,true,true,
	| true,true,true,false,
	| true,true,true,false,
	| false,true,true,true,
	| true,false,false,true,
	| true,false,true,true,
	| true,false,true,true,
	| false,false,false,true,
	| false,true,true,true,
	| true,false,false,true,
	| true,true,true,false,
	| false,false,false,true,
	| false,false,false,true,
	| true,false,false,true,
	| true,false,false,false,
	| false,false,true,true,
	| false,false,false,true,
	| false,true,true,true,
	| false,true,false,false,
	| false,false,true,true,
	| true,true,false,false,
	| false,false,true,false,
	| false,false,true,false,
	| false,true,false,false,
	| true,false,false,true, |];

nPrecs = 37;
pred = [1,1,1,2,2,3,4,5,5,5,6,6,6,7,7,7,8,9,9,9,10,10,10,11,11,12,13,13,14,15,16,16,17,18,19,20,21];
succ = [2,3,4,6,16,7,5,9,6,7,17,12,21,17,10,8,11,17,19,21,18,19,13,12,13,14,20,15,16,21,18,19,20,20,22,22,22];

nUnrels = 66;
unpred = [2,2,2,2,2,2,2,2,2,2,3,3,3,3,6,6,6,6,6,6,6,7,8,8,8,9,9,9,9,9,9,9,9,10,10,10,10,10,11,12,12,12,12,13,13,13,13,13,14,14,14,15,15,15,15,15,16,16,17,17,17,18,18,19,19,20];
unsucc = [3,4,5,7,8,9,10,11,13,15,4,5,6,9,7,8,9,10,11,13,15,9,9,10,17,10,11,12,13,14,15,16,18,11,12,14,16,17,17,13,15,17,21,14,16,17,18,19,15,17,21,16,17,18,19,20,17,21,18,19,21,19,21,20,21,21];

USEFUL_RES = [{},
	{1,2,3,4,5,6,7,8,9,10,11,12,13,14,15,16,17,18,19,20,21,24,25},
	{1,2,3,4,5,6,7,8,9,10,11,12,13,14,16,17,18,20,22,23,25},
	{1,2,3,4,5,6,7,8,9,10,11,12,13,14,15,16,17,18,19,20,21,24,25},
	{1,2,3,4,5,6,7,8,9,10,11,12,13,14,15,16,17,18,19,20,21,22,23,24,25},
	{1,2,3,4,5,6,7,9,10,11,14,15,16,18,19,20,21,22,23,24,25},
	{1,2,3,4,5,6,7,8,9,10,11,12,13,14,16,17,18,20,22,23,25},
	{1,2,3,4,6,7,9,11,16,18,19,20,21,22,23,24},
	{1,2,3,4,5,6,7,8,9,10,11,12,13,14,15,16,17,18,19,20,21,24,25},
	{1,2,3,4,5,6,7,8,9,10,11,12,13,14,16,17,18,19,20,21,22,23,24,25},
	{1,2,3,4,5,6,7,8,9,10,11,12,13,14,15,16,17,18,19,20,21,22,23,24,25},
	{1,2,3,4,5,6,7,8,9,10,11,12,13,14,15,16,17,18,19,20,21,22,23,24,25},
	{1,2,3,4,5,6,7,9,10,11,14,15,16,18,20,21,22,23,25},
	{1,2,3,4,5,6,7,8,9,10,11,12,13,14,16,17,18,19,20,21,22,23,24,25},
	{1,2,3,4,5,6,7,9,10,11,14,15,18,19,21,24,25},
	{1,2,3,4,5,6,7,8,9,10,11,12,13,14,15,16,17,18,19,20,21,22,23,24,25},
	{1,2,3,4,5,6,7,9,10,11,14,15,16,18,19,20,21,22,23,24,25},
	{1,2,3,4,5,6,7,8,9,10,11,12,13,14,16,17,18,19,20,21,24,25},
	{1,2,3,4,5,6,7,9,10,11,14,15,16,18,20,21,22,23,25},
	{1,2,3,4,5,6,7,8,9,10,11,12,13,14,15,16,17,18,19,20,21,22,23,24,25},
	{1,2,3,4,5,6,7,9,10,11,14,15,16,18,19,20,21,22,23,24,25},
	{}];

POTENTIAL_ACT = [{2,3,4,5,6,7,8,9,10,11,12,13,14,15,16,17,18,19,20,21},
	{2,3,4,5,6,7,8,9,10,11,12,13,14,15,16,17,18,19,20,21},
	{2,3,4,5,6,7,8,9,10,11,12,13,14,15,16,17,18,19,20,21},
	{2,3,4,5,6,7,8,9,10,11,12,13,14,15,16,17,18,19,20,21},
	{2,3,4,5,6,7,9,10,11,12,13,14,15,16,17,18,19,20,21},
	{2,3,4,5,6,7,8,9,10,11,12,13,14,15,16,17,18,19,20,21},
	{2,3,4,5,6,7,8,9,10,11,12,13,14,15,16,17,18,19,20,21},
	{2,3,4,5,7,9,10,11,12,14,16,18,20},
	{2,3,4,5,6,7,8,9,10,11,12,13,14,15,16,17,18,19,20,21},
	{2,3,4,5,6,7,9,10,11,12,13,14,15,16,17,18,19,20,21},
	{2,3,4,5,6,7,8,9,10,11,12,13,14,15,16,17,18,19,20,21},
	{2,3,4,5,7,9,10,11,12,14,16,18,20},
	{2,3,4,5,7,9,10,11,12,14,16,18,20},
	{2,3,4,5,6,7,9,10,11,12,13,14,15,16,17,18,19,20,21},
	{2,4,5,6,9,11,12,13,15,16,17,19,20,21},
	{2,3,4,5,6,7,8,9,10,11,12,13,14,16,17,18,19,20,21},
	{2,3,4,5,7,9,10,11,12,14,16,18,20},
	{2,3,4,5,6,7,8,9,10,11,12,13,14,15,16,17,18,19,20,21},
	{2,4,5,6,8,9,10,11,12,14,15,16,17,18,20,21},
	{2,3,4,5,6,7,8,9,10,11,12,13,14,16,17,18,19,20,21},
	{2,4,5,6,8,9,10,11,12,13,14,15,16,17,18,19,20,21},
	{3,5,6,7,8,10,11,12,13,14,16,17,19,20,21},
	{3,5,6,7,8,10,11,12,13,14,16,17,19,20,21},
	{2,4,5,6,8,9,10,11,12,14,15,16,17,18,20,21},
	{2,3,4,5,6,7,9,10,11,12,13,14,15,16,17,18,19,20,21}];
